{% implements 'lj_pair' %}
pair_style	lj/cut 2.5
pair_coeff {{atom_type_1}} {{atom_type_2}} {{epsilon}} {{sigma}} {{r_cut}}
