{% implements 'simulation_script' %}
# -- simulation
units		lj
dimension	3
atom_style	full

{% with indent=0 %}
{% include 'statements.jinja' %}
{% endwith %}
# -- end simulation